146
0 132 11 95 88 101 70 142 27 110 
47 131 136 57 56 103 3 46 79 99 
1 89 35 74 50 34 83 133 127 25 
134 63 14 115 91 98 92 54 80 48 
141 19 117 143 39 114 138 128 52 82 
97 112 94 53 65 140 28 59 118 121 
38 129 119 60 100 37 2 135 78 122 
71 31 120 33 40 144 42 24 75 36 
87 66 58 104 15 44 29 4 90 67 
6 64 81 93 73 107 41 69 12 124 
125 8 123 130 55 85 111 43 5 30 
23 16 77 9 113 68 7 109 105 22 
102 13 17 61 51 137 10 145 96 32 
76 26 126 116 21 62 72 86 108 45 
106 20 49 18 139 84 
